<?xml version = "1.0" standalone="yes"?>
<!-- This file has been generated by DOcplex version 2.23.222  -->
<CPLEXSolution version="1.0">
 <header
   problemName="CVRP"
   objectiveValue="13617"
  />
 <variables>
  <variable name="x_0_1" index="0" value="1.00000"/>
  <variable name="x_0_4" index="3" value="1.00000"/>
  <variable name="x_0_5" index="4" value="1.00000"/>
  <variable name="x_0_6" index="5" value="1.00000"/>
  <variable name="x_0_9" index="8" value="1.00000"/>
  <variable name="x_0_10" index="9" value="1.00000"/>
  <variable name="x_0_12" index="11" value="1.00000"/>
  <variable name="x_0_13" index="12" value="1.00000"/>
  <variable name="x_0_15" index="14" value="1.00000"/>
  <variable name="x_0_16" index="15" value="1.00000"/>
  <variable name="x_1_0" index="19" value="1.00000"/>
  <variable name="x_2_0" index="38" value="1.00000"/>
  <variable name="x_3_7" index="63" value="1.00000"/>
  <variable name="x_4_11" index="86" value="1.00000"/>
  <variable name="x_5_0" index="95" value="1.00000"/>
  <variable name="x_6_19" index="132" value="1.00000"/>
  <variable name="x_7_0" index="133" value="1.00000"/>
  <variable name="x_8_17" index="168" value="1.00000"/>
  <variable name="x_9_3" index="174" value="1.00000"/>
  <variable name="x_10_14" index="203" value="1.00000"/>
  <variable name="x_11_0" index="209" value="1.00000"/>
  <variable name="x_12_0" index="228" value="1.00000"/>
  <variable name="x_13_18" index="264" value="1.00000"/>
  <variable name="x_14_0" index="266" value="1.00000"/>
  <variable name="x_15_8" index="293" value="1.00000"/>
  <variable name="x_16_2" index="306" value="1.00000"/>
  <variable name="x_17_0" index="323" value="1.00000"/>
  <variable name="x_18_0" index="342" value="1.00000"/>
  <variable name="x_19_0" index="361" value="1.00000"/>
  <variable name="u_1" index="380" value="22.00000"/>
  <variable name="u_2" index="381" value="23.00000"/>
  <variable name="u_3" index="382" value="4.00000"/>
  <variable name="u_4" index="383" value="17.00000"/>
  <variable name="u_5" index="384" value="21.00000"/>
  <variable name="u_6" index="385" value="10.00000"/>
  <variable name="u_7" index="386" value="23.00000"/>
  <variable name="u_8" index="387" value="14.00000"/>
  <variable name="u_9" index="388" value="2.00000"/>
  <variable name="u_10" index="389" value="17.00000"/>
  <variable name="u_11" index="390" value="23.00000"/>
  <variable name="u_12" index="391" value="20.00000"/>
  <variable name="u_13" index="392" value="6.00000"/>
  <variable name="u_14" index="393" value="23.00000"/>
  <variable name="u_15" index="394" value="10.00000"/>
  <variable name="u_16" index="395" value="8.00000"/>
  <variable name="u_17" index="396" value="23.00000"/>
  <variable name="u_18" index="397" value="22.00000"/>
  <variable name="u_19" index="398" value="21.00000"/>
 </variables>
</CPLEXSolution>
